objective value:                                   -3
t_n_7                                               1 	(obj:-1)
t_n_1010                                            1 	(obj:-1)
t_n_1961                                            1 	(obj:-1)
